Route #1: 261 695 864 124 314 959 500 808 961 872 420 
Route #2: 754 753 944 346 388 166 34 270 153 
Route #3: 234 206 706 248 501 763 5 760 714 
Route #4: 929 272 660 386 605 607 453 686 344 859 
Route #5: 866 264 884 636 762 21 612 51 709 
Route #6: 285 316 273 350 74 588 514 85 291 
Route #7: 477 727 275 542 792 771 393 983 384 214 
Route #8: 989 556 481 894 472 352 216 603 81 329 567 
Route #9: 518 545 105 931 537 201 973 826 224 178 
Route #10: 93 389 402 87 11 67 296 795 
Route #11: 850 354 327 107 240 225 886 368 
Route #12: 581 311 855 679 17 734 745 
Route #13: 451 437 547 484 967 976 126 838 911 744 
Route #14: 176 793 230 779 871 991 101 659 59 149 
Route #15: 252 407 244 349 464 647 161 868 374 65 610 427 735 
Route #16: 922 818 77 134 613 414 803 86 302 
Cost: 245882
